p cnf 131 215
c        1 boolean_VREP
c        2 boolean_LIBCOCOBOT_COM_RF
c        3 boolean_SPIRIT1
c        4 boolean_MCUAL_ADC
c        5 boolean_MCUAL_CAN_USE_FREERTOS_QUEUES
c        6 boolean_MCUAL_USE_CAN1
c        7 boolean_MCUAL_USE_CAN2
c        8 int_MCUAL_CAN_RX_SIZE_EQ_8
c        9 int_MCUAL_CAN_RX_SIZE_EQ_OTHERVAL
c       10 int_MCUAL_CAN_TX_SIZE_EQ_8
c       11 int_MCUAL_CAN_TX_SIZE_EQ_OTHERVAL
c       12 boolean_MCUAL_CAN
c       13 boolean_MCUAL_I2C_USE_FREERTOS
c       14 boolean_MCUAL_I2C
c       15 boolean_MCUAL_SPI
c       16 boolean_MCUAL_TIMER
c       17 int_MCUAL_USART_0_RX_SIZE_EQ_8
c       18 int_MCUAL_USART_0_RX_SIZE_EQ_OTHERVAL
c       19 int_MCUAL_USART_0_TX_SIZE_EQ_8
c       20 int_MCUAL_USART_0_TX_SIZE_EQ_OTHERVAL
c       21 boolean_MCUAL_USART_0
c       22 int_MCUAL_USART_1_RX_SIZE_EQ_8
c       23 int_MCUAL_USART_1_RX_SIZE_EQ_OTHERVAL
c       24 int_MCUAL_USART_1_TX_SIZE_EQ_8
c       25 int_MCUAL_USART_1_TX_SIZE_EQ_OTHERVAL
c       26 boolean_MCUAL_USART_1
c       27 int_MCUAL_USART_2_RX_SIZE_EQ_8
c       28 int_MCUAL_USART_2_RX_SIZE_EQ_OTHERVAL
c       29 int_MCUAL_USART_2_TX_SIZE_EQ_8
c       30 int_MCUAL_USART_2_TX_SIZE_EQ_OTHERVAL
c       31 boolean_MCUAL_USART_2
c       32 int_MCUAL_USART_3_RX_SIZE_EQ_8
c       33 int_MCUAL_USART_3_RX_SIZE_EQ_OTHERVAL
c       34 int_MCUAL_USART_3_TX_SIZE_EQ_8
c       35 int_MCUAL_USART_3_TX_SIZE_EQ_OTHERVAL
c       36 boolean_MCUAL_USART_3
c       37 int_MCUAL_USART_4_RX_SIZE_EQ_8
c       38 int_MCUAL_USART_4_RX_SIZE_EQ_OTHERVAL
c       39 int_MCUAL_USART_4_TX_SIZE_EQ_8
c       40 int_MCUAL_USART_4_TX_SIZE_EQ_OTHERVAL
c       41 boolean_MCUAL_USART_4
c       42 int_MCUAL_USART_5_RX_SIZE_EQ_8
c       43 int_MCUAL_USART_5_RX_SIZE_EQ_OTHERVAL
c       44 int_MCUAL_USART_5_TX_SIZE_EQ_8
c       45 int_MCUAL_USART_5_TX_SIZE_EQ_OTHERVAL
c       46 boolean_MCUAL_USART_5
c       47 int_MCUAL_USART_6_RX_SIZE_EQ_8
c       48 int_MCUAL_USART_6_RX_SIZE_EQ_OTHERVAL
c       49 int_MCUAL_USART_6_TX_SIZE_EQ_8
c       50 int_MCUAL_USART_6_TX_SIZE_EQ_OTHERVAL
c       51 boolean_MCUAL_USART_6
c       52 int_MCUAL_USART_7_RX_SIZE_EQ_8
c       53 int_MCUAL_USART_7_RX_SIZE_EQ_OTHERVAL
c       54 int_MCUAL_USART_7_TX_SIZE_EQ_8
c       55 int_MCUAL_USART_7_TX_SIZE_EQ_OTHERVAL
c       56 boolean_MCUAL_USART_7
c       57 int_MCUAL_USART_8_RX_SIZE_EQ_8
c       58 int_MCUAL_USART_8_RX_SIZE_EQ_OTHERVAL
c       59 int_MCUAL_USART_8_TX_SIZE_EQ_8
c       60 int_MCUAL_USART_8_TX_SIZE_EQ_OTHERVAL
c       61 boolean_MCUAL_USART_8
c       62 boolean_MCUAL_USART_USE_FREERTOS_QUEUES
c       63 boolean_MCUAL_USART
c       64 boolean_MCUAL_CLOCK
c       65 boolean_MCUAL_GPIO
c       66 boolean_MCUAL_LOADER
c       67 boolean_MCUAL_USE_HAL
c       68 boolean_MCUAL
c       69 boolean_LIBCOCOBOT_ACTION_SCHEDULER
c       70 int_LIBCOCOBOT_ANGU_PID_KD_EQ_0
c       71 int_LIBCOCOBOT_ANGU_PID_KD_EQ_OTHERVAL
c       72 int_LIBCOCOBOT_ANGU_PID_KI_EQ_0
c       73 int_LIBCOCOBOT_ANGU_PID_KI_EQ_OTHERVAL
c       74 int_LIBCOCOBOT_ANGU_PID_KP_EQ_0
c       75 int_LIBCOCOBOT_ANGU_PID_KP_EQ_OTHERVAL
c       76 int_LIBCOCOBOT_ANGU_PID_MAX_ERROR_FOR_INTEGRATION_EQ_0
c       77 int_LIBCOCOBOT_ANGU_PID_MAX_ERROR_FOR_INTEGRATION_EQ_OTHERVAL
c       78 int_LIBCOCOBOT_ANGU_PID_MAX_INTEGRAL_EQ_0
c       79 int_LIBCOCOBOT_ANGU_PID_MAX_INTEGRAL_EQ_OTHERVAL
c       80 int_LIBCOCOBOT_ANGU_RAMP_MAX_ACCEL_EQ_0
c       81 int_LIBCOCOBOT_ANGU_RAMP_MAX_ACCEL_EQ_OTHERVAL
c       82 int_LIBCOCOBOT_ANGU_RAMP_MAX_SPEED_EQ_0
c       83 int_LIBCOCOBOT_ANGU_RAMP_MAX_SPEED_EQ_OTHERVAL
c       84 int_LIBCOCOBOT_DIST_PID_KD_EQ_0
c       85 int_LIBCOCOBOT_DIST_PID_KD_EQ_OTHERVAL
c       86 int_LIBCOCOBOT_DIST_PID_KI_EQ_0
c       87 int_LIBCOCOBOT_DIST_PID_KI_EQ_OTHERVAL
c       88 int_LIBCOCOBOT_DIST_PID_KP_EQ_0
c       89 int_LIBCOCOBOT_DIST_PID_KP_EQ_OTHERVAL
c       90 int_LIBCOCOBOT_DIST_PID_MAX_ERROR_FOR_INTEGRATION_EQ_0
c       91 int_LIBCOCOBOT_DIST_PID_MAX_ERROR_FOR_INTEGRATION_EQ_OTHERVAL
c       92 int_LIBCOCOBOT_DIST_PID_MAX_INTEGRAL_EQ_0
c       93 int_LIBCOCOBOT_DIST_PID_MAX_INTEGRAL_EQ_OTHERVAL
c       94 int_LIBCOCOBOT_DIST_RAMP_MAX_ACCEL_EQ_0
c       95 int_LIBCOCOBOT_DIST_RAMP_MAX_ACCEL_EQ_OTHERVAL
c       96 int_LIBCOCOBOT_DIST_RAMP_MAX_SPEED_EQ_0
c       97 int_LIBCOCOBOT_DIST_RAMP_MAX_SPEED_EQ_OTHERVAL
c       98 int_LIBCOCOBOT_LEFT_MOTOR_ALPHA_EQ_1000
c       99 int_LIBCOCOBOT_LEFT_MOTOR_ALPHA_EQ_OTHERVAL
c      100 int_LIBCOCOBOT_RIGHT_MOTOR_ALPHA_EQ_1000
c      101 int_LIBCOCOBOT_RIGHT_MOTOR_ALPHA_EQ_OTHERVAL
c      102 boolean_LIBCOCOBOT_ASSERV
c      103 boolean_LIBCOCOBOT_COM_CAN
c      104 boolean_LIBCOCOBOT_COM_USART
c      105 boolean_LIBCOCOBOT_COM_USER_HANDLER
c      106 boolean_LIBCOCOBOT_LOADER
c      107 int_LIBCOCOBOT_COM_ID_EQ_10
c      108 int_LIBCOCOBOT_COM_ID_EQ_OTHERVAL
c      109 int_LIBCOCOBOT_COM_MEMORY_POOL_SIZE_EQ_1024
c      110 int_LIBCOCOBOT_COM_MEMORY_POOL_SIZE_EQ_OTHERVAL
c      111 int_LIBCOCOBOT_COM_TIMER_EQ_1
c      112 int_LIBCOCOBOT_COM_TIMER_EQ_OTHERVAL
c      113 boolean_LIBCOCOBOT_COM
c      114 boolean_LIBCOCOBOT_GAME_STATE
c      115 boolean_LIBCOCOBOT_INVERSE_KINEMATICS
c      116 boolean_LIBCOCOBOT_LCD
c      117 boolean_LIBCOCOBOT_OPPONENT_DETECTION
c      118 boolean_TABLE_2016
c      119 boolean_TABLE_OTHER
c      120 boolean_LIBCOCOBOT_PATHFINDER
c      121 boolean_ENCODER_SPI
c      122 boolean_ENCODER_QUAD
c      123 int_LIBCOCOBOT_POSITION_TICK_PER_180DEG_EQ_1
c      124 int_LIBCOCOBOT_POSITION_TICK_PER_180DEG_EQ_OTHERVAL
c      125 int_LIBCOCOBOT_POSITION_TICK_PER_METER_EQ_1000
c      126 int_LIBCOCOBOT_POSITION_TICK_PER_METER_EQ_OTHERVAL
c      127 boolean_LIBCOCOBOT_POSITION
c      128 boolean_LIBCOCOBOT_SHIFTERS
c      129 boolean_LIBCOCOBOT_TRAJECTORY
c      130 boolean_LIBCOCOBOT
c      131 boolean_LIBCANARD
131 -70 0
131 -103 0
131 -114 0
131 -115 0
131 -116 0
131 -117 0
131 -118 0
131 -121 0
131 -128 0
131 -129 0
131 -130 0
69 -5 0
69 -65 0
69 -66 0
69 -67 0
69 -68 0
114 -104 0
4 -3 0
114 -3 0
114 -105 0
114 -106 0
114 -107 0
65 -13 0
65 -15 0
65 -16 0
65 -17 0
65 -64 0
-119 -120 0
119 120 -121 0
121 -119 0
121 -120 0
-123 -122 0
123 122 -128 0
128 -122 0
128 -123 0
-71 -72 0
71 72 -103 0
103 -72 0
103 -71 0
-73 -74 0
73 74 -103 0
103 -74 0
103 -73 0
-75 -76 0
75 76 -103 0
103 -76 0
103 -75 0
-77 -78 0
77 78 -103 0
103 -78 0
103 -77 0
-79 -80 0
79 80 -103 0
103 -80 0
103 -79 0
-81 -82 0
81 82 -103 0
103 -82 0
103 -81 0
-83 -84 0
83 84 -103 0
103 -84 0
103 -83 0
-108 -109 0
108 109 -114 0
114 -109 0
114 -108 0
-110 -111 0
110 111 -114 0
114 -111 0
114 -110 0
-112 -113 0
112 113 -114 0
114 -113 0
114 -112 0
-85 -86 0
85 86 -103 0
103 -86 0
103 -85 0
-87 -88 0
87 88 -103 0
103 -88 0
103 -87 0
-89 -90 0
89 90 -103 0
103 -90 0
103 -89 0
-91 -92 0
91 92 -103 0
103 -92 0
103 -91 0
-93 -94 0
93 94 -103 0
103 -94 0
103 -93 0
-95 -96 0
95 96 -103 0
103 -96 0
103 -95 0
-97 -98 0
97 98 -103 0
103 -98 0
103 -97 0
-99 -100 0
99 100 -103 0
103 -100 0
103 -99 0
-124 -125 0
124 125 -128 0
128 -125 0
128 -124 0
-126 -127 0
126 127 -128 0
128 -127 0
128 -126 0
-101 -102 0
101 102 -103 0
103 -102 0
103 -101 0
13 -6 0
15 -14 0
64 -22 0
64 -27 0
64 -32 0
64 -37 0
64 -42 0
64 -47 0
64 -52 0
64 -57 0
64 -62 0
64 -63 0
-7 -8 0
7 8 -13 0
13 -7 0
13 -8 0
-9 -10 0
9 10 -13 0
13 -10 0
13 -9 0
-11 -12 0
11 12 -13 0
13 -12 0
13 -11 0
-18 -19 0
18 19 -22 0
22 -19 0
22 -18 0
-20 -21 0
20 21 -22 0
22 -21 0
22 -20 0
-23 -24 0
23 24 -27 0
27 -24 0
27 -23 0
-25 -26 0
25 26 -27 0
27 -26 0
27 -25 0
-28 -29 0
28 29 -32 0
32 -29 0
32 -28 0
-30 -31 0
30 31 -32 0
32 -31 0
32 -30 0
-33 -34 0
33 34 -37 0
37 -34 0
37 -33 0
-35 -36 0
35 36 -37 0
37 -36 0
37 -35 0
-38 -39 0
38 39 -42 0
42 -39 0
42 -38 0
-40 -41 0
40 41 -42 0
42 -41 0
42 -40 0
-43 -44 0
43 44 -47 0
47 -44 0
47 -43 0
-45 -46 0
45 46 -47 0
47 -46 0
47 -45 0
-48 -49 0
48 49 -52 0
52 -49 0
52 -48 0
-50 -51 0
50 51 -52 0
52 -51 0
52 -50 0
-53 -54 0
53 54 -57 0
57 -54 0
57 -53 0
-55 -56 0
55 56 -57 0
57 -56 0
57 -55 0
-58 -59 0
58 59 -62 0
62 -59 0
62 -58 0
-60 -61 0
60 61 -62 0
62 -61 0
62 -60 0
